manual
Medicao_0 = 1.0
Medicao_1 = 0.0
Medicao_10 = 1.0
Medicao_11 = 0.0
Medicao_12 = 1.0
Medicao_13 = 1.0
Medicao_14 = 0.0
Medicao_15 = 1.0
Medicao_16 = 0.0
Medicao_2 = 1.0
Medicao_3 = 0.0
Medicao_4 = 1.0
Medicao_5 = 0.0
Medicao_6 = 1.0
Medicao_7 = 0.0
Medicao_8 = 0.0
Medicao_9 = 0.0
